TYPE : Vertex Cover
DIMENSION: 36
EDGE_DATA_SECTION:
0 7
0 11
0 29
0 30
2 19
2 32
3 10
3 28
4 9
4 10
4 11
4 19
4 26
4 28
5 14
5 31
6 13
6 15
6 16
6 33
6 34
7 16
7 33
8 27
8 35
9 15
9 19
10 12
11 13
11 30
11 32
12 22
12 30
12 31
12 32
12 35
13 28
13 33
14 16
14 19
14 26
14 27
14 30
15 27
16 22
16 28
17 19
17 23
18 26
18 32
19 22
20 23
20 26
20 35
23 24
23 25
23 28
24 25
24 29
25 27
25 30
27 34
28 30
29 34
29 35
30 33
31 35
-1
VERTEX_DEGREE:
4.0 0.0 2.0 2.0 6.0 2.0 5.0 3.0 2.0 3.0 3.0 5.0 6.0 4.0 6.0 3.0 5.0 2.0 2.0 6.0 3.0 0.0 3.0 5.0 3.0 4.0 4.0 5.0 6.0 4.0 7.0 3.0 4.0 4.0 3.0 5.0
VERTEX_COVER:
0 3 4 5 12 13 15 16 19 23 24 26 27 30 32 33 34 35
EOF
